waerden_cnf/waerden_3_7_46.cnf
p cnf 46 660
1 2 3 0
2 3 4 0
3 4 5 0
4 5 6 0
5 6 7 0
6 7 8 0
7 8 9 0
8 9 10 0
9 10 11 0
10 11 12 0
11 12 13 0
12 13 14 0
13 14 15 0
14 15 16 0
15 16 17 0
16 17 18 0
17 18 19 0
18 19 20 0
19 20 21 0
20 21 22 0
21 22 23 0
22 23 24 0
23 24 25 0
24 25 26 0
25 26 27 0
26 27 28 0
27 28 29 0
28 29 30 0
29 30 31 0
30 31 32 0
31 32 33 0
32 33 34 0
33 34 35 0
34 35 36 0
35 36 37 0
36 37 38 0
37 38 39 0
38 39 40 0
39 40 41 0
40 41 42 0
41 42 43 0
42 43 44 0
43 44 45 0
44 45 46 0
1 3 5 0
2 4 6 0
3 5 7 0
4 6 8 0
5 7 9 0
6 8 10 0
7 9 11 0
8 10 12 0
9 11 13 0
10 12 14 0
11 13 15 0
12 14 16 0
13 15 17 0
14 16 18 0
15 17 19 0
16 18 20 0
17 19 21 0
18 20 22 0
19 21 23 0
20 22 24 0
21 23 25 0
22 24 26 0
23 25 27 0
24 26 28 0
25 27 29 0
26 28 30 0
27 29 31 0
28 30 32 0
29 31 33 0
30 32 34 0
31 33 35 0
32 34 36 0
33 35 37 0
34 36 38 0
35 37 39 0
36 38 40 0
37 39 41 0
38 40 42 0
39 41 43 0
40 42 44 0
41 43 45 0
42 44 46 0
1 4 7 0
2 5 8 0
3 6 9 0
4 7 10 0
5 8 11 0
6 9 12 0
7 10 13 0
8 11 14 0
9 12 15 0
10 13 16 0
11 14 17 0
12 15 18 0
13 16 19 0
14 17 20 0
15 18 21 0
16 19 22 0
17 20 23 0
18 21 24 0
19 22 25 0
20 23 26 0
21 24 27 0
22 25 28 0
23 26 29 0
24 27 30 0
25 28 31 0
26 29 32 0
27 30 33 0
28 31 34 0
29 32 35 0
30 33 36 0
31 34 37 0
32 35 38 0
33 36 39 0
34 37 40 0
35 38 41 0
36 39 42 0
37 40 43 0
38 41 44 0
39 42 45 0
40 43 46 0
1 5 9 0
2 6 10 0
3 7 11 0
4 8 12 0
5 9 13 0
6 10 14 0
7 11 15 0
8 12 16 0
9 13 17 0
10 14 18 0
11 15 19 0
12 16 20 0
13 17 21 0
14 18 22 0
15 19 23 0
16 20 24 0
17 21 25 0
18 22 26 0
19 23 27 0
20 24 28 0
21 25 29 0
22 26 30 0
23 27 31 0
24 28 32 0
25 29 33 0
26 30 34 0
27 31 35 0
28 32 36 0
29 33 37 0
30 34 38 0
31 35 39 0
32 36 40 0
33 37 41 0
34 38 42 0
35 39 43 0
36 40 44 0
37 41 45 0
38 42 46 0
1 6 11 0
2 7 12 0
3 8 13 0
4 9 14 0
5 10 15 0
6 11 16 0
7 12 17 0
8 13 18 0
9 14 19 0
10 15 20 0
11 16 21 0
12 17 22 0
13 18 23 0
14 19 24 0
15 20 25 0
16 21 26 0
17 22 27 0
18 23 28 0
19 24 29 0
20 25 30 0
21 26 31 0
22 27 32 0
23 28 33 0
24 29 34 0
25 30 35 0
26 31 36 0
27 32 37 0
28 33 38 0
29 34 39 0
30 35 40 0
31 36 41 0
32 37 42 0
33 38 43 0
34 39 44 0
35 40 45 0
36 41 46 0
1 7 13 0
2 8 14 0
3 9 15 0
4 10 16 0
5 11 17 0
6 12 18 0
7 13 19 0
8 14 20 0
9 15 21 0
10 16 22 0
11 17 23 0
12 18 24 0
13 19 25 0
14 20 26 0
15 21 27 0
16 22 28 0
17 23 29 0
18 24 30 0
19 25 31 0
20 26 32 0
21 27 33 0
22 28 34 0
23 29 35 0
24 30 36 0
25 31 37 0
26 32 38 0
27 33 39 0
28 34 40 0
29 35 41 0
30 36 42 0
31 37 43 0
32 38 44 0
33 39 45 0
34 40 46 0
1 8 15 0
2 9 16 0
3 10 17 0
4 11 18 0
5 12 19 0
6 13 20 0
7 14 21 0
8 15 22 0
9 16 23 0
10 17 24 0
11 18 25 0
12 19 26 0
13 20 27 0
14 21 28 0
15 22 29 0
16 23 30 0
17 24 31 0
18 25 32 0
19 26 33 0
20 27 34 0
21 28 35 0
22 29 36 0
23 30 37 0
24 31 38 0
25 32 39 0
26 33 40 0
27 34 41 0
28 35 42 0
29 36 43 0
30 37 44 0
31 38 45 0
32 39 46 0
1 9 17 0
2 10 18 0
3 11 19 0
4 12 20 0
5 13 21 0
6 14 22 0
7 15 23 0
8 16 24 0
9 17 25 0
10 18 26 0
11 19 27 0
12 20 28 0
13 21 29 0
14 22 30 0
15 23 31 0
16 24 32 0
17 25 33 0
18 26 34 0
19 27 35 0
20 28 36 0
21 29 37 0
22 30 38 0
23 31 39 0
24 32 40 0
25 33 41 0
26 34 42 0
27 35 43 0
28 36 44 0
29 37 45 0
30 38 46 0
1 10 19 0
2 11 20 0
3 12 21 0
4 13 22 0
5 14 23 0
6 15 24 0
7 16 25 0
8 17 26 0
9 18 27 0
10 19 28 0
11 20 29 0
12 21 30 0
13 22 31 0
14 23 32 0
15 24 33 0
16 25 34 0
17 26 35 0
18 27 36 0
19 28 37 0
20 29 38 0
21 30 39 0
22 31 40 0
23 32 41 0
24 33 42 0
25 34 43 0
26 35 44 0
27 36 45 0
28 37 46 0
1 11 21 0
2 12 22 0
3 13 23 0
4 14 24 0
5 15 25 0
6 16 26 0
7 17 27 0
8 18 28 0
9 19 29 0
10 20 30 0
11 21 31 0
12 22 32 0
13 23 33 0
14 24 34 0
15 25 35 0
16 26 36 0
17 27 37 0
18 28 38 0
19 29 39 0
20 30 40 0
21 31 41 0
22 32 42 0
23 33 43 0
24 34 44 0
25 35 45 0
26 36 46 0
1 12 23 0
2 13 24 0
3 14 25 0
4 15 26 0
5 16 27 0
6 17 28 0
7 18 29 0
8 19 30 0
9 20 31 0
10 21 32 0
11 22 33 0
12 23 34 0
13 24 35 0
14 25 36 0
15 26 37 0
16 27 38 0
17 28 39 0
18 29 40 0
19 30 41 0
20 31 42 0
21 32 43 0
22 33 44 0
23 34 45 0
24 35 46 0
1 13 25 0
2 14 26 0
3 15 27 0
4 16 28 0
5 17 29 0
6 18 30 0
7 19 31 0
8 20 32 0
9 21 33 0
10 22 34 0
11 23 35 0
12 24 36 0
13 25 37 0
14 26 38 0
15 27 39 0
16 28 40 0
17 29 41 0
18 30 42 0
19 31 43 0
20 32 44 0
21 33 45 0
22 34 46 0
1 14 27 0
2 15 28 0
3 16 29 0
4 17 30 0
5 18 31 0
6 19 32 0
7 20 33 0
8 21 34 0
9 22 35 0
10 23 36 0
11 24 37 0
12 25 38 0
13 26 39 0
14 27 40 0
15 28 41 0
16 29 42 0
17 30 43 0
18 31 44 0
19 32 45 0
20 33 46 0
1 15 29 0
2 16 30 0
3 17 31 0
4 18 32 0
5 19 33 0
6 20 34 0
7 21 35 0
8 22 36 0
9 23 37 0
10 24 38 0
11 25 39 0
12 26 40 0
13 27 41 0
14 28 42 0
15 29 43 0
16 30 44 0
17 31 45 0
18 32 46 0
1 16 31 0
2 17 32 0
3 18 33 0
4 19 34 0
5 20 35 0
6 21 36 0
7 22 37 0
8 23 38 0
9 24 39 0
10 25 40 0
11 26 41 0
12 27 42 0
13 28 43 0
14 29 44 0
15 30 45 0
16 31 46 0
1 17 33 0
2 18 34 0
3 19 35 0
4 20 36 0
5 21 37 0
6 22 38 0
7 23 39 0
8 24 40 0
9 25 41 0
10 26 42 0
11 27 43 0
12 28 44 0
13 29 45 0
14 30 46 0
1 18 35 0
2 19 36 0
3 20 37 0
4 21 38 0
5 22 39 0
6 23 40 0
7 24 41 0
8 25 42 0
9 26 43 0
10 27 44 0
11 28 45 0
12 29 46 0
1 19 37 0
2 20 38 0
3 21 39 0
4 22 40 0
5 23 41 0
6 24 42 0
7 25 43 0
8 26 44 0
9 27 45 0
10 28 46 0
1 20 39 0
2 21 40 0
3 22 41 0
4 23 42 0
5 24 43 0
6 25 44 0
7 26 45 0
8 27 46 0
1 21 41 0
2 22 42 0
3 23 43 0
4 24 44 0
5 25 45 0
6 26 46 0
1 22 43 0
2 23 44 0
3 24 45 0
4 25 46 0
1 23 45 0
2 24 46 0
-1 -2 -3 -4 -5 -6 -7 0
-2 -3 -4 -5 -6 -7 -8 0
-3 -4 -5 -6 -7 -8 -9 0
-4 -5 -6 -7 -8 -9 -10 0
-5 -6 -7 -8 -9 -10 -11 0
-6 -7 -8 -9 -10 -11 -12 0
-7 -8 -9 -10 -11 -12 -13 0
-8 -9 -10 -11 -12 -13 -14 0
-9 -10 -11 -12 -13 -14 -15 0
-10 -11 -12 -13 -14 -15 -16 0
-11 -12 -13 -14 -15 -16 -17 0
-12 -13 -14 -15 -16 -17 -18 0
-13 -14 -15 -16 -17 -18 -19 0
-14 -15 -16 -17 -18 -19 -20 0
-15 -16 -17 -18 -19 -20 -21 0
-16 -17 -18 -19 -20 -21 -22 0
-17 -18 -19 -20 -21 -22 -23 0
-18 -19 -20 -21 -22 -23 -24 0
-19 -20 -21 -22 -23 -24 -25 0
-20 -21 -22 -23 -24 -25 -26 0
-21 -22 -23 -24 -25 -26 -27 0
-22 -23 -24 -25 -26 -27 -28 0
-23 -24 -25 -26 -27 -28 -29 0
-24 -25 -26 -27 -28 -29 -30 0
-25 -26 -27 -28 -29 -30 -31 0
-26 -27 -28 -29 -30 -31 -32 0
-27 -28 -29 -30 -31 -32 -33 0
-28 -29 -30 -31 -32 -33 -34 0
-29 -30 -31 -32 -33 -34 -35 0
-30 -31 -32 -33 -34 -35 -36 0
-31 -32 -33 -34 -35 -36 -37 0
-32 -33 -34 -35 -36 -37 -38 0
-33 -34 -35 -36 -37 -38 -39 0
-34 -35 -36 -37 -38 -39 -40 0
-35 -36 -37 -38 -39 -40 -41 0
-36 -37 -38 -39 -40 -41 -42 0
-37 -38 -39 -40 -41 -42 -43 0
-38 -39 -40 -41 -42 -43 -44 0
-39 -40 -41 -42 -43 -44 -45 0
-40 -41 -42 -43 -44 -45 -46 0
-1 -3 -5 -7 -9 -11 -13 0
-2 -4 -6 -8 -10 -12 -14 0
-3 -5 -7 -9 -11 -13 -15 0
-4 -6 -8 -10 -12 -14 -16 0
-5 -7 -9 -11 -13 -15 -17 0
-6 -8 -10 -12 -14 -16 -18 0
-7 -9 -11 -13 -15 -17 -19 0
-8 -10 -12 -14 -16 -18 -20 0
-9 -11 -13 -15 -17 -19 -21 0
-10 -12 -14 -16 -18 -20 -22 0
-11 -13 -15 -17 -19 -21 -23 0
-12 -14 -16 -18 -20 -22 -24 0
-13 -15 -17 -19 -21 -23 -25 0
-14 -16 -18 -20 -22 -24 -26 0
-15 -17 -19 -21 -23 -25 -27 0
-16 -18 -20 -22 -24 -26 -28 0
-17 -19 -21 -23 -25 -27 -29 0
-18 -20 -22 -24 -26 -28 -30 0
-19 -21 -23 -25 -27 -29 -31 0
-20 -22 -24 -26 -28 -30 -32 0
-21 -23 -25 -27 -29 -31 -33 0
-22 -24 -26 -28 -30 -32 -34 0
-23 -25 -27 -29 -31 -33 -35 0
-24 -26 -28 -30 -32 -34 -36 0
-25 -27 -29 -31 -33 -35 -37 0
-26 -28 -30 -32 -34 -36 -38 0
-27 -29 -31 -33 -35 -37 -39 0
-28 -30 -32 -34 -36 -38 -40 0
-29 -31 -33 -35 -37 -39 -41 0
-30 -32 -34 -36 -38 -40 -42 0
-31 -33 -35 -37 -39 -41 -43 0
-32 -34 -36 -38 -40 -42 -44 0
-33 -35 -37 -39 -41 -43 -45 0
-34 -36 -38 -40 -42 -44 -46 0
-1 -4 -7 -10 -13 -16 -19 0
-2 -5 -8 -11 -14 -17 -20 0
-3 -6 -9 -12 -15 -18 -21 0
-4 -7 -10 -13 -16 -19 -22 0
-5 -8 -11 -14 -17 -20 -23 0
-6 -9 -12 -15 -18 -21 -24 0
-7 -10 -13 -16 -19 -22 -25 0
-8 -11 -14 -17 -20 -23 -26 0
-9 -12 -15 -18 -21 -24 -27 0
-10 -13 -16 -19 -22 -25 -28 0
-11 -14 -17 -20 -23 -26 -29 0
-12 -15 -18 -21 -24 -27 -30 0
-13 -16 -19 -22 -25 -28 -31 0
-14 -17 -20 -23 -26 -29 -32 0
-15 -18 -21 -24 -27 -30 -33 0
-16 -19 -22 -25 -28 -31 -34 0
-17 -20 -23 -26 -29 -32 -35 0
-18 -21 -24 -27 -30 -33 -36 0
-19 -22 -25 -28 -31 -34 -37 0
-20 -23 -26 -29 -32 -35 -38 0
-21 -24 -27 -30 -33 -36 -39 0
-22 -25 -28 -31 -34 -37 -40 0
-23 -26 -29 -32 -35 -38 -41 0
-24 -27 -30 -33 -36 -39 -42 0
-25 -28 -31 -34 -37 -40 -43 0
-26 -29 -32 -35 -38 -41 -44 0
-27 -30 -33 -36 -39 -42 -45 0
-28 -31 -34 -37 -40 -43 -46 0
-1 -5 -9 -13 -17 -21 -25 0
-2 -6 -10 -14 -18 -22 -26 0
-3 -7 -11 -15 -19 -23 -27 0
-4 -8 -12 -16 -20 -24 -28 0
-5 -9 -13 -17 -21 -25 -29 0
-6 -10 -14 -18 -22 -26 -30 0
-7 -11 -15 -19 -23 -27 -31 0
-8 -12 -16 -20 -24 -28 -32 0
-9 -13 -17 -21 -25 -29 -33 0
-10 -14 -18 -22 -26 -30 -34 0
-11 -15 -19 -23 -27 -31 -35 0
-12 -16 -20 -24 -28 -32 -36 0
-13 -17 -21 -25 -29 -33 -37 0
-14 -18 -22 -26 -30 -34 -38 0
-15 -19 -23 -27 -31 -35 -39 0
-16 -20 -24 -28 -32 -36 -40 0
-17 -21 -25 -29 -33 -37 -41 0
-18 -22 -26 -30 -34 -38 -42 0
-19 -23 -27 -31 -35 -39 -43 0
-20 -24 -28 -32 -36 -40 -44 0
-21 -25 -29 -33 -37 -41 -45 0
-22 -26 -30 -34 -38 -42 -46 0
-1 -6 -11 -16 -21 -26 -31 0
-2 -7 -12 -17 -22 -27 -32 0
-3 -8 -13 -18 -23 -28 -33 0
-4 -9 -14 -19 -24 -29 -34 0
-5 -10 -15 -20 -25 -30 -35 0
-6 -11 -16 -21 -26 -31 -36 0
-7 -12 -17 -22 -27 -32 -37 0
-8 -13 -18 -23 -28 -33 -38 0
-9 -14 -19 -24 -29 -34 -39 0
-10 -15 -20 -25 -30 -35 -40 0
-11 -16 -21 -26 -31 -36 -41 0
-12 -17 -22 -27 -32 -37 -42 0
-13 -18 -23 -28 -33 -38 -43 0
-14 -19 -24 -29 -34 -39 -44 0
-15 -20 -25 -30 -35 -40 -45 0
-16 -21 -26 -31 -36 -41 -46 0
-1 -7 -13 -19 -25 -31 -37 0
-2 -8 -14 -20 -26 -32 -38 0
-3 -9 -15 -21 -27 -33 -39 0
-4 -10 -16 -22 -28 -34 -40 0
-5 -11 -17 -23 -29 -35 -41 0
-6 -12 -18 -24 -30 -36 -42 0
-7 -13 -19 -25 -31 -37 -43 0
-8 -14 -20 -26 -32 -38 -44 0
-9 -15 -21 -27 -33 -39 -45 0
-10 -16 -22 -28 -34 -40 -46 0
-1 -8 -15 -22 -29 -36 -43 0
-2 -9 -16 -23 -30 -37 -44 0
-3 -10 -17 -24 -31 -38 -45 0
-4 -11 -18 -25 -32 -39 -46 0
